\ Model bilinear_copy
\ LP format - for model browsing. Use MPS format to capture full model detail.
Minimize
 
Subject To
 R102: 5.833333333333334 t_ht19 - 5.833333333333334 t_ht20 + g_ht19 = 0
 R696: 1584.696791892019 t_ht19 = 70937.6805718729
 R707: 2794.64146594375 t_ht20 = 116195.0321844674
Bounds
 t_ht19 free
 t_ht20 free
End
